p cnf 67 304
-1 21 -2 47 0 
-3 47 0 
-4 19 23 -1 21 48 0 
-5 -4 19 23 -1 21 49 0 
-4 19 23 -1 21 50 0 
-6 32 -4 19 23 -1 21 51 0 
-7 34 49 0 
-7 34 51 0 
-8 9 12 16 20 22 24 30 31 35 36 37 39 46 48 0 
-8 9 12 16 20 22 24 30 31 35 36 37 39 46 50 0 
-9 8 12 16 20 22 24 30 31 35 36 37 39 46 49 0 
-9 8 12 16 20 22 24 30 31 35 36 37 39 46 50 0 
-6 32 -10 11 13 15 18 26 38 40 42 51 0 
-5 -11 10 13 15 18 26 38 40 42 -1 21 49 0 
-12 8 9 16 20 22 24 30 31 35 36 37 39 46 48 0 
-5 -13 10 11 15 18 26 38 40 42 51 0 
-14 -10 11 13 15 18 26 38 40 42 49 0 
-4 19 23 -15 10 11 13 18 26 38 40 42 -1 21 49 0 
-14 -13 10 11 15 18 26 38 40 42 49 0 
-4 19 23 -15 10 11 13 18 26 38 40 42 -1 21 51 0 
-2 48 0 
-2 50 0 
-4 19 23 -1 21 51 0 
-14 -11 10 13 15 18 26 38 40 42 49 0 
-16 8 9 12 20 22 24 30 31 35 36 37 39 46 48 0 
-6 32 -11 10 13 15 18 26 38 40 42 50 0 
-16 8 9 12 20 22 24 30 31 35 36 37 39 46 51 0 
-1 21 48 0 
-17 27 33 45 -1 21 49 0 
-17 27 33 45 -1 21 50 0 
-5 -13 10 11 15 18 26 38 40 42 -1 21 48 0 
-6 32 -13 10 11 15 18 26 38 40 42 -1 21 51 0 
-5 -15 10 11 13 18 26 38 40 42 -1 21 51 0 
-15 10 11 13 18 26 38 40 42 -1 21 49 0 
-4 19 23 -10 11 13 15 18 26 38 40 42 -1 21 48 0 
-10 11 13 15 18 26 38 40 42 -1 21 49 0 
-13 10 11 15 18 26 38 40 42 -1 21 49 0 
-13 10 11 15 18 26 38 40 42 -1 21 50 0 
-6 32 -11 10 13 15 18 26 38 40 42 -1 21 48 0 
-11 10 13 15 18 26 38 40 42 -1 21 49 0 
-14 -15 10 11 13 18 26 38 40 42 -1 21 48 0 
-15 10 11 13 18 26 38 40 42 -1 21 50 0 
-14 -11 10 13 15 18 26 38 40 42 -1 21 49 0 
-11 10 13 15 18 26 38 40 42 -1 21 48 0 
-15 10 11 13 18 26 38 40 42 -1 21 51 0 
-6 32 -15 10 11 13 18 26 38 40 42 -1 21 49 0 
-11 10 13 15 18 26 38 40 42 -1 21 51 0 
-5 -11 10 13 15 18 26 38 40 42 -1 21 50 0 
-14 -15 10 11 13 18 26 38 40 42 -1 21 50 0 
-18 10 11 13 15 26 38 40 42 -19 4 23 50 0 
-15 10 11 13 18 26 38 40 42 -1 21 48 0 
-18 10 11 13 15 26 38 40 42 -19 4 23 49 0 
-20 8 9 12 16 22 24 30 31 35 36 37 39 46 49 0 
-14 -11 10 13 15 18 26 38 40 42 51 0 
-6 32 -11 10 13 15 18 26 38 40 42 49 0 
-5 -11 10 13 15 18 26 38 40 42 49 0 
-6 32 -10 11 13 15 18 26 38 40 42 50 0 
-14 -15 10 11 13 18 26 38 40 42 49 0 
-17 27 33 45 51 0 
-14 -15 10 11 13 18 26 38 40 42 50 0 
-5 -13 10 11 15 18 26 38 40 42 49 0 
-5 -11 10 13 15 18 26 38 40 42 50 0 
-17 27 33 45 48 0 
-5 -13 10 11 15 18 26 38 40 42 50 0 
-6 32 -10 11 13 15 18 26 38 40 42 49 0 
-21 1 -2 48 0 
-21 1 48 0 
-21 1 51 0 
-22 8 9 12 16 20 24 30 31 35 36 37 39 46 49 0 
-22 8 9 12 16 20 24 30 31 35 36 37 39 46 48 0 
-4 19 23 -18 10 11 13 15 26 38 40 42 50 0 
-6 32 -18 10 11 13 15 26 38 40 42 48 0 
-4 19 23 -11 10 13 15 18 26 38 40 42 48 0 
-11 10 13 15 18 26 38 40 42 49 0 
-18 10 11 13 15 26 38 40 42 49 0 
-18 10 11 13 15 26 38 40 42 51 0 
-11 10 13 15 18 26 38 40 42 51 0 
-1 21 47 0 
-1 21 52 0 
-1 21 53 0 
-5 -6 32 -15 10 11 13 18 26 38 40 42 49 0 
-23 4 19 48 0 
-18 10 11 13 15 26 38 40 42 48 0 
-19 4 23 48 0 
-11 10 13 15 18 26 38 40 42 48 0 
-11 10 13 15 18 26 38 40 42 50 0 
-19 4 23 50 0 
-18 10 11 13 15 26 38 40 42 50 0 
-23 4 19 50 0 
-14 -11 10 13 15 18 26 38 40 42 48 0 
-24 8 9 12 16 20 22 30 31 35 36 37 39 46 48 0 
-6 32 -11 10 13 15 18 26 38 40 42 51 0 
-24 8 9 12 16 20 22 30 31 35 36 37 39 46 51 0 
-6 32 -15 10 11 13 18 26 38 40 42 51 0 
-5 -15 10 11 13 18 26 38 40 42 48 0 
-11 10 13 15 18 26 38 40 42 54 0 
-14 -10 11 13 15 18 26 38 40 42 -1 21 49 0 
-6 32 -10 11 13 15 18 26 38 40 42 -1 21 50 0 
-10 11 13 15 18 26 38 40 42 -1 21 48 0 
-10 11 13 15 18 26 38 40 42 -1 21 51 0 
-25 -11 10 13 15 18 26 38 40 42 50 0 
-5 -15 10 11 13 18 26 38 40 42 49 0 
-4 19 23 -15 10 11 13 18 26 38 40 42 50 0 
-25 -15 10 11 13 18 26 38 40 42 50 0 
-14 -10 11 13 15 18 26 38 40 42 50 0 
-14 -13 10 11 15 18 26 38 40 42 50 0 
-4 19 23 -15 10 11 13 18 26 38 40 42 48 0 
-4 19 23 -15 10 11 13 18 26 38 40 42 51 0 
-25 -11 10 13 15 18 26 38 40 42 48 0 
-5 -15 10 11 13 18 26 38 40 42 50 0 
-14 -11 10 13 15 18 26 38 40 42 50 0 
-6 32 -10 11 13 15 18 26 38 40 42 48 0 
-14 -26 10 11 13 15 18 38 40 42 50 0 
-10 11 13 15 18 26 38 40 42 51 0 
-15 10 11 13 18 26 38 40 42 51 0 
-6 32 -11 10 13 15 18 26 38 40 42 48 0 
-6 32 -26 10 11 13 15 18 38 40 42 48 0 
-26 10 11 13 15 18 38 40 42 51 0 
-13 10 11 15 18 26 38 40 42 51 0 
-5 -13 10 11 15 18 26 38 40 42 48 0 
-13 10 11 15 18 26 38 40 42 49 0 
-10 11 13 15 18 26 38 40 42 49 0 
-26 10 11 13 15 18 38 40 42 49 0 
-15 10 11 13 18 26 38 40 42 49 0 
-5 -10 11 13 15 18 26 38 40 42 51 0 
-5 -10 11 13 15 18 26 38 40 42 48 0 
-10 11 13 15 18 26 38 40 42 50 0 
-14 -10 11 13 15 18 26 38 40 42 48 0 
-14 -10 11 13 15 18 26 38 40 42 51 0 
-13 10 11 15 18 26 38 40 42 50 0 
-6 32 -13 10 11 15 18 26 38 40 42 48 0 
-10 11 13 15 18 26 38 40 42 49 0 
-10 11 13 15 18 26 38 40 42 51 0 
-13 10 11 15 18 26 38 40 42 49 0 
-13 10 11 15 18 26 38 40 42 51 0 
-6 32 -13 10 11 15 18 26 38 40 42 49 0 
-6 32 -23 4 19 51 0 
-5 -23 4 19 49 0 
-6 32 -13 10 11 15 18 26 38 40 42 51 0 
-4 19 23 -10 11 13 15 18 26 38 40 42 49 0 
-10 11 13 15 18 26 38 40 42 48 0 
-15 10 11 13 18 26 38 40 42 48 0 
-13 10 11 15 18 26 38 40 42 48 0 
-15 10 11 13 18 26 38 40 42 50 0 
-5 -10 11 13 15 18 26 38 40 42 50 0 
-5 -10 11 13 15 18 26 38 40 42 49 0 
-6 32 -2 -27 17 33 45 -28 51 0 
-2 -27 17 33 45 -29 49 0 
-2 -27 17 33 45 -28 51 0 
-6 32 -2 -28 51 0 
-25 -2 -27 17 33 45 -28 49 0 
-2 -29 49 0 
-1 21 55 0 
-1 21 56 0 
-1 21 57 0 
-2 -1 21 48 0 
-30 8 9 12 16 20 22 24 31 35 36 37 39 46 50 0 
-30 8 9 12 16 20 22 24 31 35 36 37 39 46 48 0 
-2 -1 21 50 0 
-24 8 9 12 16 20 22 30 31 35 36 37 39 46 48 0 
-4 19 23 -18 10 11 13 15 26 38 40 42 -1 21 51 0 
-6 32 -15 10 11 13 18 26 38 40 42 -1 21 51 0 
-24 8 9 12 16 20 22 30 31 35 36 37 39 46 50 0 
-2 -24 8 9 12 16 20 22 30 31 35 36 37 39 46 51 0 
-14 -13 10 11 15 18 26 38 40 42 -1 21 51 0 
-14 -13 10 11 15 18 26 38 40 42 -1 21 48 0 
-18 10 11 13 15 26 38 40 42 -19 4 23 51 0 
-5 -15 10 11 13 18 26 38 40 42 -1 21 49 0 
-23 4 19 49 0 
-31 8 9 12 16 20 22 24 30 35 36 37 39 46 51 0 
-31 8 9 12 16 20 22 24 30 35 36 37 39 46 48 0 
-6 32 -13 10 11 15 18 26 38 40 42 -1 21 48 0 
-4 19 23 -13 10 11 15 18 26 38 40 42 -1 21 51 0 
-21 1 -2 58 0 
-23 4 19 -1 21 59 0 
-32 6 -23 4 19 -1 21 58 0 
-20 8 9 12 16 22 24 30 31 35 36 37 39 46 48 0 
-20 8 9 12 16 22 24 30 31 35 36 37 39 46 51 0 
-33 17 27 45 -1 21 49 0 
-33 17 27 45 -1 21 50 0 
-5 -11 10 13 15 18 26 38 40 42 51 0 
-18 10 11 13 15 26 38 40 42 -23 4 19 48 0 
-18 10 11 13 15 26 38 40 42 -23 4 19 51 0 
-6 32 -10 11 13 15 18 26 38 40 42 -1 21 48 0 
-4 19 23 -10 11 13 15 18 26 38 40 42 -1 21 51 0 
-34 7 48 0 
-20 8 9 12 16 22 24 30 31 35 36 37 39 46 51 0 
-20 8 9 12 16 22 24 30 31 35 36 37 39 46 48 0 
-6 32 -13 10 11 15 18 26 38 40 42 -1 21 50 0 
-4 19 23 -15 10 11 13 18 26 38 40 42 -1 21 50 0 
-35 8 9 12 16 20 22 24 30 31 36 37 39 46 51 0 
-35 8 9 12 16 20 22 24 30 31 36 37 39 46 49 0 
-3 52 0 
-5 -15 10 11 13 18 26 38 40 42 -1 21 50 0 
-2 51 0 
-2 49 0 
-36 8 9 12 16 20 22 24 30 31 35 37 39 46 48 0 
-5 -11 10 13 15 18 26 38 40 42 -1 21 51 0 
-36 8 9 12 16 20 22 24 30 31 35 37 39 46 50 0 
-24 8 9 12 16 20 22 30 31 35 36 37 39 46 48 0 
-24 8 9 12 16 20 22 30 31 35 36 37 39 46 49 0 
-24 8 9 12 16 20 22 30 31 35 36 37 39 46 50 0 
-24 8 9 12 16 20 22 30 31 35 36 37 39 46 51 0 
-37 8 9 12 16 20 22 24 30 31 35 36 39 46 48 0 
-5 -38 10 11 13 15 18 26 40 42 -1 21 49 0 
-4 19 23 -15 10 11 13 18 26 38 40 42 49 0 
-4 19 23 -10 11 13 15 18 26 38 40 42 50 0 
-6 32 -15 10 11 13 18 26 38 40 42 50 0 
-39 8 9 12 16 20 22 24 30 31 35 36 37 46 48 0 
-5 -11 10 13 15 18 26 38 40 42 48 0 
-17 27 33 45 50 0 
-17 27 33 45 49 0 
-13 10 11 15 18 26 38 40 42 -1 21 51 0 
-14 -13 10 11 15 18 26 38 40 42 -1 21 50 0 
-4 19 23 -18 10 11 13 15 26 38 40 42 -1 21 48 0 
-4 19 23 -18 10 11 13 15 26 38 40 42 -1 21 50 0 
-40 10 11 13 15 18 26 38 42 -19 4 23 -1 21 48 0 
-5 -15 10 11 13 18 26 38 40 42 -1 21 48 0 
-40 10 11 13 15 18 26 38 42 -19 4 23 -1 21 51 0 
-9 8 12 16 20 22 24 30 31 35 36 37 39 46 48 0 
-9 8 12 16 20 22 24 30 31 35 36 37 39 46 51 0 
-9 8 12 16 20 22 24 30 31 35 36 37 39 46 50 0 
-41 -15 10 11 13 18 26 38 40 42 -1 21 49 0 
-27 17 33 45 -1 21 48 0 
-41 -42 10 11 13 15 18 26 38 40 -1 21 49 0 
-27 17 33 45 -1 21 51 0 
-5 -42 10 11 13 15 18 26 38 40 -1 21 50 0 
-2 -1 21 51 0 
-27 17 33 45 -2 -1 21 50 0 
-27 17 33 45 -2 -1 21 49 0 
-11 10 13 15 18 26 38 40 42 -1 21 50 0 
-38 10 11 13 15 18 26 40 42 -23 4 19 -1 21 51 0 
-41 -11 10 13 15 18 26 38 40 42 -1 21 51 0 
-25 -11 10 13 15 18 26 38 40 42 -43 44 48 0 
-38 10 11 13 15 18 26 40 42 -23 4 19 -1 21 48 0 
-25 -15 10 11 13 18 26 38 40 42 -44 43 51 0 
-4 19 23 -18 10 11 13 15 26 38 40 42 51 0 
-14 -23 4 19 51 0 
-14 -19 4 23 51 0 
-6 32 -23 4 19 49 0 
-5 -18 10 11 13 15 26 38 40 42 49 0 
-6 32 -19 4 23 49 0 
-18 10 11 13 15 26 38 40 42 -1 21 49 0 
-5 -11 10 13 15 18 26 38 40 42 -1 21 48 0 
-6 32 -11 10 13 15 18 26 38 40 42 -1 21 51 0 
-18 10 11 13 15 26 38 40 42 -1 21 50 0 
-6 32 -18 10 11 13 15 26 38 40 42 -1 21 48 0 
-14 -18 10 11 13 15 26 38 40 42 -1 21 51 0 
-10 11 13 15 18 26 38 40 42 -1 21 50 0 
-40 10 11 13 15 18 26 38 42 -23 4 19 51 0 
-40 10 11 13 15 18 26 38 42 -23 4 19 49 0 
-5 51 0 
-6 32 -5 48 0 
-6 32 -14 50 0 
-14 49 0 
-6 32 -42 10 11 13 15 18 26 38 40 -1 21 51 0 
-42 10 11 13 15 18 26 38 40 -1 21 48 0 
-42 10 11 13 15 18 26 38 40 -1 21 50 0 
-4 19 23 -42 10 11 13 15 18 26 38 40 -1 21 49 0 
-14 -40 10 11 13 15 18 26 38 42 -1 21 49 0 
-14 -40 10 11 13 15 18 26 38 42 -1 21 50 0 
-17 27 33 45 -1 21 48 0 
-17 27 33 45 -1 21 51 0 
-21 1 -2 -45 17 27 33 52 0 
-21 1 -2 -45 17 27 33 47 0 
-23 4 19 -18 10 11 13 15 26 38 40 42 60 0 
-6 32 -23 4 19 -18 10 11 13 15 26 38 40 42 54 0 
-5 -38 10 11 13 15 18 26 40 42 49 0 
-14 -38 10 11 13 15 18 26 40 42 51 0 
-38 10 11 13 15 18 26 40 42 50 0 
-38 10 11 13 15 18 26 40 42 48 0 
-6 32 -10 11 13 15 18 26 38 40 42 -1 21 51 0 
-5 -15 10 11 13 18 26 38 40 42 51 0 
-14 -15 10 11 13 18 26 38 40 42 48 0 
-4 19 23 -13 10 11 15 18 26 38 40 42 -1 21 49 0 
-13 10 11 15 18 26 38 40 42 -1 21 48 0 
-18 10 11 13 15 26 38 40 42 -23 4 19 50 0 
-14 -13 10 11 15 18 26 38 40 42 48 0 
-6 32 -42 10 11 13 15 18 26 38 40 -1 21 50 0 
-5 -38 10 11 13 15 18 26 40 42 -1 21 50 0 
-19 4 23 61 0 
-19 4 23 62 0 
-2 58 0 
-23 4 19 -6 32 54 0 
-4 19 23 -11 10 13 15 18 26 38 40 42 -1 21 50 0 
-2 -21 1 50 0 
-21 1 -2 51 0 
-2 -21 1 59 0 
-2 -21 1 49 0 
-1 21 51 0 
-46 8 9 12 16 20 22 24 30 31 35 36 37 39 50 0 
-46 8 9 12 16 20 22 24 30 31 35 36 37 39 49 0 
-46 8 9 12 16 20 22 24 30 31 35 36 37 39 48 0 
-46 8 9 12 16 20 22 24 30 31 35 36 37 39 51 0 
-13 10 11 15 18 26 38 40 42 -23 4 19 63 0 
-13 10 11 15 18 26 38 40 42 -23 4 19 64 0 
-13 10 11 15 18 26 38 40 42 65 0 
-13 10 11 15 18 26 38 40 42 -23 4 19 66 0 
-13 10 11 15 18 26 38 40 42 -23 4 19 67 0 
-20 8 9 12 16 22 24 30 31 35 36 37 39 46 48 0 
-33 17 27 45 48 0 
-33 17 27 45 51 0 
-39 8 9 12 16 20 22 24 30 31 35 36 37 46 51 0 
-5 -10 11 13 15 18 26 38 40 42 -1 21 51 0 
